p cnf 11 21
-11 -9 -8 0
-11 -9 5 0
11 8 -4 0
-11 5 4 0
-11 -4 -2 0
11 -4 2 0
-10 9 -1 0
-10 9 1 0
10 9 -1 0
9 8 -7 0
9 -5 -3 0
9 -3 1 0
9 3 -1 0
8 -7 -2 0
-8 -5 -1 0
8 -4 2 0
-7 6 -3 0
7 6 3 0
7 -5 -4 0
-6 5 -4 0
-4 3 2 0
